(set-logic HORN)
(declare-fun state (Int (Array Int Int) (Array Int Int) (Array Int Int) (Array Int Int) Int Int (Array Int Int) (Array Int Int) Int Int Int Int Int Int Int Int Int Int Int Int Int Int Int Int Int Int Bool Bool Bool Int (Array Int Int)) Bool)
(assert (forall ((|hhv_ULTIMATE.start_L34_0_Int| Int) (|hhv_ULTIMATE.start_L34_1_Array_Int_Int| (Array Int Int)) (|hhv_ULTIMATE.start_L34_2_Array_Int_Int| (Array Int Int)) (|hbv_ULTIMATE.start_L17_3_Array_Int_Array_Int_Int| (Array Int Int)) (|hhv_ULTIMATE.start_L34_4_Array_Int_Array_Int_Int| (Array Int Int)) (|hhv_ULTIMATE.start_L34_5_Int| Int) (|hhv_ULTIMATE.start_L34_6_Int| Int) (|hhv_ULTIMATE.start_L34_7_Array_Int_Int| (Array Int Int)) (|hhv_ULTIMATE.start_L34_8_Array_Int_Int| (Array Int Int)) (|hhv_ULTIMATE.start_L34_9_Int| Int) (|hhv_ULTIMATE.start_L34_10_Int| Int) (|hhv_ULTIMATE.start_L34_11_Int| Int) (|hhv_ULTIMATE.start_L34_12_Int| Int) (|hhv_ULTIMATE.start_L34_13_Int| Int) (|hhv_ULTIMATE.start_L34_14_Int| Int) (|hhv_ULTIMATE.start_L34_15_Int| Int) (|hhv_ULTIMATE.start_L34_16_Int| Int) (|hhv_ULTIMATE.start_L34_17_Int| Int) (|hbv_ULTIMATE.start_L17_18_Int| Int) (|hhv_ULTIMATE.start_L34_19_Int| Int) (|hbv_ULTIMATE.start_L17_20_Int| Int) (|hhv_ULTIMATE.start_L34_21_Int| Int) (|hhv_ULTIMATE.start_L34_22_Int| Int) (|hbv_ULTIMATE.start_L17_23_Int| Int) (|hbv_ULTIMATE.start_L17_24_Int| Int) (|hhv_ULTIMATE.start_L34_25_Int| Int) (|hbv_ULTIMATE.start_L17_26_Int| Int) (|hhv_ULTIMATE.start_L34_27_Bool| Bool) (|.loc.3| Bool) (|.loc.4| Bool) (|hbv_ULTIMATE.start_L34_23_Int| Int) (|hbv_ULTIMATE.start_L-1_1_Array_Int_Int| (Array Int Int)) (|.x.172| Int) (|.x.170| (Array Int Int)) (|.x.168| Int) (|.x.166| (Array Int Int)) (|.x.162| Int) (|.x.164| (Array Int Int)) (|.x.165| (Array Int Int)) (|.x.182| Int) (|.x.188| Int) (|hhv_ULTIMATE.start_ULTIMATE.startEXIT_27_Bool| Bool) (|.x.163| (Array Int Int)) (|.x.173| Int) (|.x.178| Int) (|.x.179| Int) (|.x.180| Int) (|.x.185| Int) (|.x.186| Int) (|.x.181| Int) (|.x.169| (Array Int Int)) (|.x.167| Int) (|.x.171| Int) (|.x.174| Int) (|.x.175| Int) (|.x.176| Int) (|.x.177| Int) (|.x.183| Int) (|.x.184| Int) (|.x.187| Int) (|.loc.6| Bool) (|.loc.5| Bool) (|.xtv.1| Int) (|.xtv.2| (Array Int Int))) (=> (and (and (not .loc.3) (not .loc.4)) (and (and (and (and (and (= hhv_ULTIMATE.start_L34_1_Array_Int_Int hhv_ULTIMATE.start_L34_2_Array_Int_Int) (= hhv_ULTIMATE.start_L34_7_Array_Int_Int hhv_ULTIMATE.start_L34_8_Array_Int_Int)) (= hhv_ULTIMATE.start_L34_5_Int hhv_ULTIMATE.start_L34_6_Int)) (not hhv_ULTIMATE.start_L34_27_Bool)) (= hbv_ULTIMATE.start_L17_3_Array_Int_Array_Int_Int hhv_ULTIMATE.start_L34_4_Array_Int_Array_Int_Int)) (= hhv_ULTIMATE.start_L34_9_Int hhv_ULTIMATE.start_L34_10_Int))) (state |hhv_ULTIMATE.start_L34_0_Int| |hhv_ULTIMATE.start_L34_1_Array_Int_Int| |hhv_ULTIMATE.start_L34_2_Array_Int_Int| |hbv_ULTIMATE.start_L17_3_Array_Int_Array_Int_Int| |hhv_ULTIMATE.start_L34_4_Array_Int_Array_Int_Int| |hhv_ULTIMATE.start_L34_5_Int| |hhv_ULTIMATE.start_L34_6_Int| |hhv_ULTIMATE.start_L34_7_Array_Int_Int| |hhv_ULTIMATE.start_L34_8_Array_Int_Int| |hhv_ULTIMATE.start_L34_9_Int| |hhv_ULTIMATE.start_L34_10_Int| |hhv_ULTIMATE.start_L34_11_Int| |hhv_ULTIMATE.start_L34_12_Int| |hhv_ULTIMATE.start_L34_13_Int| |hhv_ULTIMATE.start_L34_14_Int| |hhv_ULTIMATE.start_L34_15_Int| |hhv_ULTIMATE.start_L34_16_Int| |hhv_ULTIMATE.start_L34_17_Int| |hbv_ULTIMATE.start_L17_18_Int| |hhv_ULTIMATE.start_L34_19_Int| |hbv_ULTIMATE.start_L17_20_Int| |hhv_ULTIMATE.start_L34_21_Int| |hhv_ULTIMATE.start_L34_22_Int| |hbv_ULTIMATE.start_L17_23_Int| |hbv_ULTIMATE.start_L17_24_Int| |hhv_ULTIMATE.start_L34_25_Int| |hbv_ULTIMATE.start_L17_26_Int| |hhv_ULTIMATE.start_L34_27_Bool| |.loc.3| |.loc.4| |hbv_ULTIMATE.start_L34_23_Int| |hbv_ULTIMATE.start_L-1_1_Array_Int_Int|))))
(assert (forall ((|hhv_ULTIMATE.start_L34_0_Int| Int) (|hhv_ULTIMATE.start_L34_1_Array_Int_Int| (Array Int Int)) (|hhv_ULTIMATE.start_L34_2_Array_Int_Int| (Array Int Int)) (|hbv_ULTIMATE.start_L17_3_Array_Int_Array_Int_Int| (Array Int Int)) (|hhv_ULTIMATE.start_L34_4_Array_Int_Array_Int_Int| (Array Int Int)) (|hhv_ULTIMATE.start_L34_5_Int| Int) (|hhv_ULTIMATE.start_L34_6_Int| Int) (|hhv_ULTIMATE.start_L34_7_Array_Int_Int| (Array Int Int)) (|hhv_ULTIMATE.start_L34_8_Array_Int_Int| (Array Int Int)) (|hhv_ULTIMATE.start_L34_9_Int| Int) (|hhv_ULTIMATE.start_L34_10_Int| Int) (|hhv_ULTIMATE.start_L34_11_Int| Int) (|hhv_ULTIMATE.start_L34_12_Int| Int) (|hhv_ULTIMATE.start_L34_13_Int| Int) (|hhv_ULTIMATE.start_L34_14_Int| Int) (|hhv_ULTIMATE.start_L34_15_Int| Int) (|hhv_ULTIMATE.start_L34_16_Int| Int) (|hhv_ULTIMATE.start_L34_17_Int| Int) (|hbv_ULTIMATE.start_L17_18_Int| Int) (|hhv_ULTIMATE.start_L34_19_Int| Int) (|hbv_ULTIMATE.start_L17_20_Int| Int) (|hhv_ULTIMATE.start_L34_21_Int| Int) (|hhv_ULTIMATE.start_L34_22_Int| Int) (|hbv_ULTIMATE.start_L17_23_Int| Int) (|hbv_ULTIMATE.start_L17_24_Int| Int) (|hhv_ULTIMATE.start_L34_25_Int| Int) (|hbv_ULTIMATE.start_L17_26_Int| Int) (|hhv_ULTIMATE.start_L34_27_Bool| Bool) (|.loc.3| Bool) (|.loc.4| Bool) (|hbv_ULTIMATE.start_L34_23_Int| Int) (|hbv_ULTIMATE.start_L-1_1_Array_Int_Int| (Array Int Int)) (|.x.172| Int) (|.x.170| (Array Int Int)) (|.x.168| Int) (|.x.166| (Array Int Int)) (|.x.162| Int) (|.x.164| (Array Int Int)) (|.x.165| (Array Int Int)) (|.x.182| Int) (|.x.188| Int) (|hhv_ULTIMATE.start_ULTIMATE.startEXIT_27_Bool| Bool) (|.x.163| (Array Int Int)) (|.x.173| Int) (|.x.178| Int) (|.x.179| Int) (|.x.180| Int) (|.x.185| Int) (|.x.186| Int) (|.x.181| Int) (|.x.169| (Array Int Int)) (|.x.167| Int) (|.x.171| Int) (|.x.174| Int) (|.x.175| Int) (|.x.176| Int) (|.x.177| Int) (|.x.183| Int) (|.x.184| Int) (|.x.187| Int) (|.loc.6| Bool) (|.loc.5| Bool) (|.xtv.1| Int) (|.xtv.2| (Array Int Int))) (=> (and (state |hhv_ULTIMATE.start_L34_0_Int| |hhv_ULTIMATE.start_L34_1_Array_Int_Int| |hhv_ULTIMATE.start_L34_2_Array_Int_Int| |hbv_ULTIMATE.start_L17_3_Array_Int_Array_Int_Int| |hhv_ULTIMATE.start_L34_4_Array_Int_Array_Int_Int| |hhv_ULTIMATE.start_L34_5_Int| |hhv_ULTIMATE.start_L34_6_Int| |hhv_ULTIMATE.start_L34_7_Array_Int_Int| |hhv_ULTIMATE.start_L34_8_Array_Int_Int| |hhv_ULTIMATE.start_L34_9_Int| |hhv_ULTIMATE.start_L34_10_Int| |hhv_ULTIMATE.start_L34_11_Int| |hhv_ULTIMATE.start_L34_12_Int| |hhv_ULTIMATE.start_L34_13_Int| |hhv_ULTIMATE.start_L34_14_Int| |hhv_ULTIMATE.start_L34_15_Int| |hhv_ULTIMATE.start_L34_16_Int| |hhv_ULTIMATE.start_L34_17_Int| |hbv_ULTIMATE.start_L17_18_Int| |hhv_ULTIMATE.start_L34_19_Int| |hbv_ULTIMATE.start_L17_20_Int| |hhv_ULTIMATE.start_L34_21_Int| |hhv_ULTIMATE.start_L34_22_Int| |hbv_ULTIMATE.start_L17_23_Int| |hbv_ULTIMATE.start_L17_24_Int| |hhv_ULTIMATE.start_L34_25_Int| |hbv_ULTIMATE.start_L17_26_Int| |hhv_ULTIMATE.start_L34_27_Bool| |.loc.3| |.loc.4| |hbv_ULTIMATE.start_L34_23_Int| |hbv_ULTIMATE.start_L-1_1_Array_Int_Int|) (let ((.def_42 (not .loc.3))) (let ((.def_43 (not .loc.4))) (let ((.def_75 (= hbv_ULTIMATE.start_L34_23_Int 2))) (let ((.def_93 (or hhv_ULTIMATE.start_L34_27_Bool (and (and (and (= hbv_ULTIMATE.start_L34_23_Int (select (select .x.165 hhv_ULTIMATE.start_L34_17_Int) hhv_ULTIMATE.start_L34_11_Int)) (= .x.165 (store hbv_ULTIMATE.start_L17_3_Array_Int_Array_Int_Int .x.182 (store (select hbv_ULTIMATE.start_L17_3_Array_Int_Array_Int_Int .x.182) .x.188 2)))) (= hhv_ULTIMATE.start_L34_15_Int .x.188)) (= hhv_ULTIMATE.start_L34_12_Int .x.182))))) (let ((.def_97 (= hhv_ULTIMATE.start_L34_1_Array_Int_Int .x.163))) (let ((.def_100 (= hhv_ULTIMATE.start_L34_11_Int .x.173))) (let ((.def_103 (= hhv_ULTIMATE.start_L34_16_Int .x.178))) (let ((.def_106 (= hhv_ULTIMATE.start_L34_17_Int .x.179))) (let ((.def_129 (= hhv_ULTIMATE.start_L34_27_Bool hhv_ULTIMATE.start_ULTIMATE.startEXIT_27_Bool))) (let ((.def_140 (= hhv_ULTIMATE.start_L34_7_Array_Int_Int .x.169))) (let ((.def_142 (= hhv_ULTIMATE.start_L34_5_Int .x.167))) (let ((.def_145 (= hhv_ULTIMATE.start_L34_9_Int .x.171))) (let ((.def_148 (= hhv_ULTIMATE.start_L34_12_Int .x.174))) (let ((.def_151 (= hhv_ULTIMATE.start_L34_13_Int .x.175))) (let ((.def_154 (= hhv_ULTIMATE.start_L34_14_Int .x.176))) (let ((.def_157 (= hhv_ULTIMATE.start_L34_15_Int .x.177))) (let ((.def_159 (= hhv_ULTIMATE.start_L34_19_Int .x.181))) (let ((.def_162 (= hhv_ULTIMATE.start_L34_21_Int .x.183))) (let ((.def_165 (= hhv_ULTIMATE.start_L34_22_Int .x.184))) (let ((.def_168 (= hhv_ULTIMATE.start_L34_25_Int .x.187))) (let ((.def_173 (= hbv_ULTIMATE.start_L34_23_Int 0))) (let ((.def_175 (= .x.177 .x.183))) (let ((.def_177 (= .x.174 .x.175))) (let ((.def_184 (and (not .loc.6) (and .def_129 (and .def_42 (and .def_43 .def_103)))))) (let ((.def_224 (or hhv_ULTIMATE.start_ULTIMATE.startEXIT_27_Bool (and (and (and (and (and (and (and (and (and (= .x.165 (store hbv_ULTIMATE.start_L17_3_Array_Int_Array_Int_Int .x.179 (store (select hbv_ULTIMATE.start_L17_3_Array_Int_Array_Int_Int .x.179) .x.173 1))) (and (= .x.173 0) (and (= .x.175 .x.176) (and (= .x.173 .x.187) (= .x.183 .x.187))))) (= (select hbv_ULTIMATE.start_L-1_1_Array_Int_Int .x.179) 0)) (<= (- 2147483648) hbv_ULTIMATE.start_L34_23_Int)) (not (= .x.179 0))) (= .x.163 (store hbv_ULTIMATE.start_L-1_1_Array_Int_Int .x.179 1))) (not (<= .x.162 .x.179))) (<= hbv_ULTIMATE.start_L34_23_Int 2147483647)) (= .x.179 .x.176)) (= .x.169 (store hhv_ULTIMATE.start_L34_7_Array_Int_Int .x.179 4)))))) (let ((.def_232 (or hhv_ULTIMATE.start_L34_27_Bool (and (and (= .x.167 0) (= .x.171 0)) (= hbv_ULTIMATE.start_L-1_1_Array_Int_Int (store hhv_ULTIMATE.start_L34_1_Array_Int_Int 0 0)))))) (let ((.def_264 (not .loc.5))) (and (and (= hhv_ULTIMATE.start_L34_10_Int .x.172) (and (= hhv_ULTIMATE.start_L34_8_Array_Int_Int .x.170) (and (= hhv_ULTIMATE.start_L34_6_Int .x.168) (and (= hhv_ULTIMATE.start_L34_4_Array_Int_Array_Int_Int .x.166) (and (= hhv_ULTIMATE.start_L34_0_Int .x.162) (= hhv_ULTIMATE.start_L34_2_Array_Int_Int .x.164)))))) (or (or (and (or (or (and (or (and .def_43 (and .loc.3 (and (or hhv_ULTIMATE.start_L34_27_Bool (not .def_75)) (and (and (and (and (and .def_93 hhv_ULTIMATE.start_ULTIMATE.startEXIT_27_Bool) .def_97) .def_100) .def_103) .def_106)))) (and (or hhv_ULTIMATE.start_L34_27_Bool (= .x.163 (store hhv_ULTIMATE.start_L34_1_Array_Int_Int hhv_ULTIMATE.start_L34_17_Int 0))) (and (= hbv_ULTIMATE.start_L17_3_Array_Int_Array_Int_Int .x.165) (and (= hbv_ULTIMATE.start_L17_18_Int .x.180) (and (= hbv_ULTIMATE.start_L17_20_Int .x.182) (and (= hbv_ULTIMATE.start_L17_23_Int .x.185) (and (= hbv_ULTIMATE.start_L17_24_Int .x.186) (and (= hbv_ULTIMATE.start_L17_26_Int .x.188) (and (and (and .loc.4 .def_42) (or hhv_ULTIMATE.start_ULTIMATE.startEXIT_27_Bool (= .x.178 .x.181))) .def_129))))))))) (and (and (and (and (and (and (and (and (and (and (and .def_140 .def_142) .def_145) .def_148) .def_151) .def_154) .def_157) .def_159) .def_162) .def_165) .def_168) .loc.6)) (and (and (and (or hhv_ULTIMATE.start_ULTIMATE.startEXIT_27_Bool (and (and (not .def_173) .def_175) .def_177)) .def_184) .def_224) .def_232)) (and (or hhv_ULTIMATE.start_ULTIMATE.startEXIT_27_Bool (and .def_177 (and .def_173 .def_175))) (and .def_232 (and .def_184 .def_224)))) .loc.5) (and (or .def_75 hhv_ULTIMATE.start_ULTIMATE.startEXIT_27_Bool) (and (and .def_129 (and .loc.6 (and .def_43 (and .loc.3 (and .def_168 (and .def_165 (and .def_162 (and .def_159 (and .def_106 (and .def_103 (and .def_157 (and .def_154 (and .def_151 (and .def_148 (and .def_100 (and .def_145 (and .def_140 (and .def_142 (and .def_93 .def_97))))))))))))))))))) .def_264))) (and .def_264 (and .loc.6 (and .def_43 (and .loc.3 (and .def_168 (and .def_165 (and .def_162 (and .def_159 (and .def_106 (and .def_103 (and .def_157 (and .def_154 (and .def_151 (and .def_148 (and .def_100 (and .def_145 (and .def_140 (and .def_142 (and .def_97 (and .def_93 (and hhv_ULTIMATE.start_L34_27_Bool hhv_ULTIMATE.start_ULTIMATE.startEXIT_27_Bool))))))))))))))))))))))))))))))))))))))))))))))))))) (state |.x.162| |.x.163| |.x.164| |.x.165| |.x.166| |.x.167| |.x.168| |.x.169| |.x.170| |.x.171| |.x.172| |.x.173| |.x.174| |.x.175| |.x.176| |.x.177| |.x.178| |.x.179| |.x.180| |.x.181| |.x.182| |.x.183| |.x.184| |.x.185| |.x.186| |.x.187| |.x.188| |hhv_ULTIMATE.start_ULTIMATE.startEXIT_27_Bool| |.loc.5| |.loc.6| |.xtv.1| |.xtv.2|))))
(assert (forall ((|hhv_ULTIMATE.start_L34_0_Int| Int) (|hhv_ULTIMATE.start_L34_1_Array_Int_Int| (Array Int Int)) (|hhv_ULTIMATE.start_L34_2_Array_Int_Int| (Array Int Int)) (|hbv_ULTIMATE.start_L17_3_Array_Int_Array_Int_Int| (Array Int Int)) (|hhv_ULTIMATE.start_L34_4_Array_Int_Array_Int_Int| (Array Int Int)) (|hhv_ULTIMATE.start_L34_5_Int| Int) (|hhv_ULTIMATE.start_L34_6_Int| Int) (|hhv_ULTIMATE.start_L34_7_Array_Int_Int| (Array Int Int)) (|hhv_ULTIMATE.start_L34_8_Array_Int_Int| (Array Int Int)) (|hhv_ULTIMATE.start_L34_9_Int| Int) (|hhv_ULTIMATE.start_L34_10_Int| Int) (|hhv_ULTIMATE.start_L34_11_Int| Int) (|hhv_ULTIMATE.start_L34_12_Int| Int) (|hhv_ULTIMATE.start_L34_13_Int| Int) (|hhv_ULTIMATE.start_L34_14_Int| Int) (|hhv_ULTIMATE.start_L34_15_Int| Int) (|hhv_ULTIMATE.start_L34_16_Int| Int) (|hhv_ULTIMATE.start_L34_17_Int| Int) (|hbv_ULTIMATE.start_L17_18_Int| Int) (|hhv_ULTIMATE.start_L34_19_Int| Int) (|hbv_ULTIMATE.start_L17_20_Int| Int) (|hhv_ULTIMATE.start_L34_21_Int| Int) (|hhv_ULTIMATE.start_L34_22_Int| Int) (|hbv_ULTIMATE.start_L17_23_Int| Int) (|hbv_ULTIMATE.start_L17_24_Int| Int) (|hhv_ULTIMATE.start_L34_25_Int| Int) (|hbv_ULTIMATE.start_L17_26_Int| Int) (|hhv_ULTIMATE.start_L34_27_Bool| Bool) (|.loc.3| Bool) (|.loc.4| Bool) (|hbv_ULTIMATE.start_L34_23_Int| Int) (|hbv_ULTIMATE.start_L-1_1_Array_Int_Int| (Array Int Int)) (|.x.172| Int) (|.x.170| (Array Int Int)) (|.x.168| Int) (|.x.166| (Array Int Int)) (|.x.162| Int) (|.x.164| (Array Int Int)) (|.x.165| (Array Int Int)) (|.x.182| Int) (|.x.188| Int) (|hhv_ULTIMATE.start_ULTIMATE.startEXIT_27_Bool| Bool) (|.x.163| (Array Int Int)) (|.x.173| Int) (|.x.178| Int) (|.x.179| Int) (|.x.180| Int) (|.x.185| Int) (|.x.186| Int) (|.x.181| Int) (|.x.169| (Array Int Int)) (|.x.167| Int) (|.x.171| Int) (|.x.174| Int) (|.x.175| Int) (|.x.176| Int) (|.x.177| Int) (|.x.183| Int) (|.x.184| Int) (|.x.187| Int) (|.loc.6| Bool) (|.loc.5| Bool) (|.xtv.1| Int) (|.xtv.2| (Array Int Int))) (=> (state |hhv_ULTIMATE.start_L34_0_Int| |hhv_ULTIMATE.start_L34_1_Array_Int_Int| |hhv_ULTIMATE.start_L34_2_Array_Int_Int| |hbv_ULTIMATE.start_L17_3_Array_Int_Array_Int_Int| |hhv_ULTIMATE.start_L34_4_Array_Int_Array_Int_Int| |hhv_ULTIMATE.start_L34_5_Int| |hhv_ULTIMATE.start_L34_6_Int| |hhv_ULTIMATE.start_L34_7_Array_Int_Int| |hhv_ULTIMATE.start_L34_8_Array_Int_Int| |hhv_ULTIMATE.start_L34_9_Int| |hhv_ULTIMATE.start_L34_10_Int| |hhv_ULTIMATE.start_L34_11_Int| |hhv_ULTIMATE.start_L34_12_Int| |hhv_ULTIMATE.start_L34_13_Int| |hhv_ULTIMATE.start_L34_14_Int| |hhv_ULTIMATE.start_L34_15_Int| |hhv_ULTIMATE.start_L34_16_Int| |hhv_ULTIMATE.start_L34_17_Int| |hbv_ULTIMATE.start_L17_18_Int| |hhv_ULTIMATE.start_L34_19_Int| |hbv_ULTIMATE.start_L17_20_Int| |hhv_ULTIMATE.start_L34_21_Int| |hhv_ULTIMATE.start_L34_22_Int| |hbv_ULTIMATE.start_L17_23_Int| |hbv_ULTIMATE.start_L17_24_Int| |hhv_ULTIMATE.start_L34_25_Int| |hbv_ULTIMATE.start_L17_26_Int| |hhv_ULTIMATE.start_L34_27_Bool| |.loc.3| |.loc.4| |hbv_ULTIMATE.start_L34_23_Int| |hbv_ULTIMATE.start_L-1_1_Array_Int_Int|) (not (and hhv_ULTIMATE.start_L34_27_Bool (and .loc.3 .loc.4))))))
(check-sat)
